c Nemesis formula in 6CNF in accordance with DIMACS CNF format:
c    Filename: MCNC/c2670/c2670.tdl
c    Formula number 38
c    4861 variables (range: 2 - 4862)
c    2286 clauses
c
c p cnf 4862 2286
p cnf 843 2286
73	0
843	0
73	0
-74	0
72	0
433	-435	0
-433	435	0
72	74	0
-72	-74	0
433	72	0
-433	-72	0
821	-435	0
-821	435	0
821	-74	0
-821	74	0
435	-74	0
-435	74	0
130	133	0
-134	-823	0
132	-823	0
134	-824	0
-132	-824	0
-824	822	0
-823	822	0
762	132	0
-762	-132	0
-763	133	0
764	134	0
-764	-134	0
766	762	0
-766	-762	0
-767	763	0
768	764	0
-768	-764	0
568	-766	0
-568	766	0
568	-769	0
-568	769	0
569	-767	0
569	-770	0
570	-768	0
-570	768	0
570	-771	0
-570	771	0
-474	-568	0
-571	-568	0
-574	-568	0
-575	-568	0
-572	569	0
-572	-575	0
-572	-574	0
-572	-474	0
-474	-570	0
-573	-570	0
-574	-570	0
-575	-570	0
-482	-819	0
577	-819	0
482	-820	0
-577	-820	0
-820	575	0
-819	575	0
60	-576	0
-60	576	0
60	-577	0
-60	577	0
60	-791	0
-60	791	0
60	-801	0
-60	801	0
289	-485	0
-289	485	0
289	-486	0
-289	486	0
289	-659	0
-289	659	0
290	289	0
283	289	0
286	289	0
291	289	0
294	291	0
127	291	0
295	291	0
106	-143	0
-106	143	0
106	-144	0
-106	144	0
106	-149	0
-106	149	0
106	-151	0
-106	151	0
106	-157	0
-106	157	0
106	-164	0
-106	164	0
106	-167	0
-106	167	0
106	-172	0
-106	172	0
106	-214	0
-106	214	0
106	-225	0
-106	225	0
106	-285	0
-106	285	0
106	-295	0
-106	295	0
106	-300	0
-106	300	0
106	-302	0
-106	302	0
106	-306	0
-106	306	0
106	-347	0
-106	347	0
106	-351	0
-106	351	0
106	-355	0
-106	355	0
106	-374	0
-106	374	0
106	-378	0
-106	378	0
106	-470	0
-106	470	0
140	-141	0
-140	141	0
140	-142	0
-140	142	0
140	-146	0
-140	146	0
140	-148	0
-140	148	0
140	-161	0
-140	161	0
140	-163	0
-140	163	0
140	-217	0
-140	217	0
140	-220	0
-140	220	0
140	-224	0
-140	224	0
140	-227	0
-140	227	0
140	-292	0
-140	292	0
140	-294	0
-140	294	0
140	-297	0
-140	297	0
140	-299	0
-140	299	0
140	-375	0
-140	375	0
140	-377	0
-140	377	0
140	-469	0
-140	469	0
140	-472	0
-140	472	0
379	140	0
-379	-140	0
54	-152	0
-54	152	0
54	-153	0
-54	153	0
54	-156	0
-54	156	0
54	-158	0
-54	158	0
54	-166	0
-54	166	0
54	-168	0
-54	168	0
54	-171	0
-54	171	0
54	-173	0
-54	173	0
54	-213	0
-54	213	0
54	-215	0
-54	215	0
54	-231	0
-54	231	0
54	-284	0
-54	284	0
54	-287	0
-54	287	0
54	-301	0
-54	301	0
54	-303	0
-54	303	0
54	-305	0
-54	305	0
54	-348	0
-54	348	0
54	-350	0
-54	350	0
54	-352	0
-54	352	0
54	-354	0
-54	354	0
54	-370	0
-54	370	0
54	-373	0
-54	373	0
54	-379	0
-54	379	0
287	286	0
36	286	0
288	286	0
145	-154	0
-145	154	0
145	-155	0
-145	155	0
145	-159	0
-145	159	0
145	-162	0
-145	162	0
145	-169	0
-145	169	0
145	-174	0
-145	174	0
145	-216	0
-145	216	0
145	-218	0
-145	218	0
145	-221	0
-145	221	0
145	-228	0
-145	228	0
145	-232	0
-145	232	0
145	-288	0
-145	288	0
145	-293	0
-145	293	0
145	-298	0
-145	298	0
145	-304	0
-145	304	0
145	-349	0
-145	349	0
145	-353	0
-145	353	0
145	-371	0
-145	371	0
145	-376	0
-145	376	0
145	-473	0
-145	473	0
355	145	0
-355	-145	0
284	283	0
93	283	0
285	283	0
292	290	0
126	290	0
293	290	0
91	-364	0
-91	364	0
91	-365	0
-91	365	0
91	-453	0
-91	453	0
91	-460	0
-91	460	0
91	-466	0
-91	466	0
91	-476	0
-91	476	0
91	-480	0
-91	480	0
91	-484	0
-91	484	0
91	-489	0
-91	489	0
358	-362	0
-358	362	0
358	-363	0
-358	363	0
358	-459	0
-358	459	0
358	-465	0
-358	465	0
358	-475	0
-358	475	0
358	-479	0
-358	479	0
358	-483	0
-358	483	0
358	-488	0
-358	488	0
453	358	0
-453	-358	0
557	574	0
-557	-574	0
-558	-557	0
-559	-557	0
756	559	0
-656	-756	0
-487	-813	0
784	-813	0
487	-814	0
-784	-814	0
-814	656	0
-813	656	0
29	-784	0
-29	784	0
29	-785	0
-29	785	0
29	-788	0
-29	788	0
29	-802	0
-29	802	0
461	-490	0
-461	490	0
461	-491	0
-461	491	0
461	-579	0
-461	579	0
461	-658	0
-461	658	0
471	461	0
170	461	0
468	461	0
469	468	0
76	468	0
470	468	0
472	471	0
47	471	0
473	471	0
464	-796	0
-464	796	0
464	-797	0
-464	797	0
360	-367	0
-360	367	0
360	-368	0
-360	368	0
360	-467	0
-360	467	0
360	-567	0
-360	567	0
296	360	0
372	360	0
369	360	0
370	369	0
120	369	0
371	369	0
373	372	0
15	372	0
374	372	0
793	792	0
-793	-792	0
82	-748	0
-82	748	0
82	-749	0
-82	749	0
82	-790	0
-82	790	0
82	-793	0
-82	793	0
82	-795	0
-82	795	0
82	-803	0
-82	803	0
796	794	0
-796	-794	0
761	755	0
-761	-755	0
361	-760	0
-361	760	0
361	-761	0
-361	761	0
210	-274	0
-210	274	0
210	-275	0
-210	275	0
210	-345	0
-210	345	0
210	-366	0
-210	366	0
211	210	0
212	210	0
139	210	0
141	139	0
24	139	0
143	139	0
217	211	0
45	211	0
218	211	0
3	-276	0
-3	276	0
3	-277	0
-3	277	0
3	-729	0
-3	729	0
3	-754	0
-3	754	0
3	-759	0
-3	759	0
3	-799	0
-3	799	0
751	-757	0
-751	757	0
751	-758	0
-751	758	0
754	751	0
-754	-751	0
562	558	0
79	-565	0
-79	565	0
79	-566	0
-79	566	0
79	-697	0
-79	697	0
79	-700	0
-79	700	0
79	-800	0
-79	800	0
233	-278	0
-233	278	0
233	-279	0
-233	279	0
233	-346	0
-233	346	0
233	-481	0
-233	481	0
160	233	0
234	233	0
230	233	0
231	230	0
122	230	0
232	230	0
305	234	0
95	234	0
306	234	0
563	560	0
-563	-560	0
458	-563	0
-458	563	0
458	-564	0
-458	564	0
222	-462	0
-222	462	0
222	-463	0
-222	463	0
219	222	0
150	222	0
147	222	0
148	147	0
80	147	0
149	147	0
220	219	0
87	219	0
221	219	0
59	-786	0
-59	786	0
59	-787	0
-59	787	0
59	-789	0
-59	789	0
59	-804	0
-59	804	0
561	-742	0
-561	742	0
561	-743	0
-561	743	0
561	-746	0
-561	746	0
789	561	0
-789	-561	0
591	571	0
-592	572	0
-587	-581	0
-582	-586	0
593	573	0
-594	-591	0
-598	-591	0
-601	-591	0
-604	-591	0
-595	592	0
-599	592	0
-602	592	0
-605	592	0
-596	-593	0
-600	-593	0
-603	-593	0
-606	-593	0
-402	-811	0
660	-811	0
402	-812	0
-660	-812	0
-812	604	0
-811	604	0
-403	605	0
-404	-825	0
660	-825	0
404	-826	0
-660	-826	0
-826	606	0
-825	606	0
61	-544	0
-61	544	0
61	-545	0
-61	545	0
61	-617	0
-61	617	0
61	-660	0
-61	660	0
-409	403	0
-415	403	0
-415	454	0
-409	21	0
243	-454	0
-243	454	0
243	-457	0
-243	457	0
243	-556	0
-243	556	0
243	-616	0
-243	616	0
243	-696	0
-243	696	0
175	243	0
238	243	0
235	243	0
236	235	0
105	235	0
237	235	0
58	-180	0
-58	180	0
58	-181	0
-58	181	0
58	-185	0
-58	185	0
58	-191	0
-58	191	0
58	-199	0
-58	199	0
58	-202	0
-58	202	0
58	-207	0
-58	207	0
58	-237	0
-58	237	0
58	-246	0
-58	246	0
58	-249	0
-58	249	0
58	-258	0
-58	258	0
58	-263	0
-58	263	0
58	-268	0
-58	268	0
58	-271	0
-58	271	0
58	-307	0
-58	307	0
58	-310	0
-58	310	0
58	-324	0
-58	324	0
58	-385	0
-58	385	0
58	-387	0
-58	387	0
58	-391	0
-58	391	0
58	-395	0
-58	395	0
195	-197	0
-195	197	0
195	-198	0
-195	198	0
195	-236	0
-195	236	0
195	-239	0
-195	239	0
195	-245	0
-195	245	0
195	-248	0
-195	248	0
195	-251	0
-195	251	0
195	-265	0
-195	265	0
195	-267	0
-195	267	0
195	-270	0
-195	270	0
195	-309	0
-195	309	0
195	-312	0
-195	312	0
195	-315	0
-195	315	0
195	-323	0
-195	323	0
195	-326	0
-195	326	0
195	-334	0
-195	334	0
195	-381	0
-195	381	0
195	-384	0
-195	384	0
195	-386	0
-195	386	0
195	-388	0
-195	388	0
432	195	0
-432	-195	0
89	-178	0
-89	178	0
89	-179	0
-89	179	0
89	-182	0
-89	182	0
89	-184	0
-89	184	0
89	-186	0
-89	186	0
89	-190	0
-89	190	0
89	-192	0
-89	192	0
89	-201	0
-89	201	0
89	-203	0
-89	203	0
89	-206	0
-89	206	0
89	-208	0
-89	208	0
89	-242	0
-89	242	0
89	-257	0
-89	257	0
89	-259	0
-89	259	0
89	-262	0
-89	262	0
89	-320	0
-89	320	0
89	-330	0
-89	330	0
89	-390	0
-89	390	0
89	-392	0
-89	392	0
89	-394	0
-89	394	0
89	-432	0
-89	432	0
177	-187	0
-177	187	0
177	-188	0
-177	188	0
177	-193	0
-177	193	0
177	-196	0
-177	196	0
177	-204	0
-177	204	0
177	-209	0
-177	209	0
177	-240	0
-177	240	0
177	-241	0
-177	241	0
177	-252	0
-177	252	0
177	-260	0
-177	260	0
177	-266	0
-177	266	0
177	-313	0
-177	313	0
177	-316	0
-177	316	0
177	-321	0
-177	321	0
177	-327	0
-177	327	0
177	-331	0
-177	331	0
177	-335	0
-177	335	0
177	-382	0
-177	382	0
177	-389	0
-177	389	0
177	-393	0
-177	393	0
307	177	0
-307	-177	0
178	175	0
116	175	0
180	175	0
72	-411	0
-72	411	0
72	-414	0
-72	414	0
72	-417	0
-72	417	0
72	-426	0
-72	426	0
72	-439	0
-72	439	0
72	-498	0
-72	498	0
72	-511	0
-72	511	0
72	-520	0
-72	520	0
72	-532	0
-72	532	0
72	-541	0
-72	541	0
73	-412	0
73	-415	0
73	-418	0
73	-427	0
73	-440	0
73	-499	0
73	-512	0
73	-521	0
73	-533	0
73	-542	0
74	-413	0
-74	413	0
74	-416	0
-74	416	0
74	-419	0
-74	419	0
74	-428	0
-74	428	0
74	-441	0
-74	441	0
74	-500	0
-74	500	0
74	-513	0
-74	513	0
74	-522	0
-74	522	0
74	-534	0
-74	534	0
74	-543	0
-74	543	0
399	-405	0
-399	405	0
399	-408	0
-399	408	0
399	-423	0
-399	423	0
399	-436	0
-399	436	0
399	-495	0
-399	495	0
399	-508	0
-399	508	0
399	-517	0
-399	517	0
399	-529	0
-399	529	0
399	-538	0
-399	538	0
400	-406	0
400	-409	0
400	-424	0
400	-437	0
400	-496	0
400	-509	0
400	-518	0
400	-530	0
400	-539	0
401	-407	0
-401	407	0
401	-410	0
-401	410	0
401	-425	0
-401	425	0
401	-438	0
-401	438	0
401	-497	0
-401	497	0
401	-510	0
-401	510	0
401	-519	0
-401	519	0
401	-531	0
-401	531	0
401	-540	0
-401	540	0
417	399	0
-417	-399	0
-418	400	0
419	401	0
-419	-401	0
625	601	0
-635	602	0
-623	602	0
-626	602	0
-623	-631	0
-635	-628	0
627	603	0
-711	-625	0
-712	626	0
-719	703	0
-704	718	0
-715	707	0
-708	714	0
-713	-627	0
-492	-807	0
732	-807	0
492	-808	0
-732	-808	0
-808	711	0
-807	711	0
-493	712	0
-494	-830	0
732	-830	0
494	-831	0
-732	-831	0
-831	713	0
-830	713	0
107	-731	0
-107	731	0
107	-732	0
-107	732	0
107	-735	0
-107	735	0
-496	493	0
-499	493	0
-499	501	0
-496	101	0
282	-343	0
-282	343	0
282	-344	0
-282	344	0
282	-501	0
-282	501	0
282	-552	0
-282	552	0
282	-554	0
-282	554	0
380	282	0
183	282	0
383	282	0
384	383	0
2	383	0
385	383	0
381	380	0
42	380	0
382	380	0
357	-717	0
-357	717	0
357	-718	0
-357	718	0
135	-280	0
-135	280	0
135	-281	0
-135	281	0
135	-356	0
-135	356	0
135	-359	0
-135	359	0
136	135	0
137	135	0
138	135	0
142	138	0
67	138	0
144	138	0
146	136	0
7	136	0
154	136	0
706	703	0
-706	-703	0
128	-272	0
-128	272	0
128	-273	0
-128	273	0
128	-706	0
-128	706	0
128	-714	0
-128	714	0
128	-728	0
-128	728	0
717	707	0
-717	-707	0
637	622	0
-637	-622	0
-638	623	0
639	624	0
-639	-624	0
420	-634	0
-420	634	0
420	-637	0
-420	637	0
421	-635	0
421	-638	0
422	-636	0
-422	636	0
422	-639	0
-422	639	0
-424	421	0
-427	421	0
-427	429	0
-424	123	0
328	-341	0
-328	341	0
328	-342	0
-328	342	0
328	-429	0
-328	429	0
328	-555	0
-328	555	0
328	-578	0
-328	578	0
328	-615	0
-328	615	0
328	-657	0
-328	657	0
325	328	0
256	328	0
322	328	0
323	322	0
65	322	0
324	322	0
326	325	0
33	325	0
327	325	0
66	-618	0
-66	618	0
66	-619	0
-66	619	0
66	-631	0
-66	631	0
442	-443	0
-442	443	0
442	-444	0
-442	444	0
442	-628	0
-442	628	0
619	442	0
-619	-442	0
679	598	0
682	598	0
607	598	0
669	598	0
-680	599	0
-683	599	0
-608	599	0
-670	599	0
681	600	0
684	600	0
609	600	0
671	600	0
744	669	0
676	669	0
-677	670	0
-677	744	0
744	671	0
678	671	0
526	-673	0
-526	673	0
526	-676	0
-526	676	0
527	-674	0
527	-677	0
528	-675	0
-528	675	0
528	-678	0
-528	678	0
-530	527	0
-533	527	0
-533	650	0
-530	69	0
253	-650	0
-253	650	0
253	-653	0
-253	653	0
253	-695	0
-253	695	0
253	-730	0
-253	730	0
253	-777	0
-253	777	0
253	-778	0
-253	778	0
253	-781	0
-253	781	0
250	253	0
200	253	0
244	253	0
245	244	0
28	244	0
246	244	0
251	250	0
118	250	0
252	250	0
672	-744	0
-672	744	0
672	-745	0
-672	745	0
672	-747	0
-672	747	0
738	672	0
-738	-672	0
1	-737	0
-1	737	0
1	-738	0
-1	738	0
1	-765	0
-1	765	0
-536	608	0
62	-698	0
-62	698	0
62	-699	0
-62	699	0
62	-701	0
-62	701	0
62	-739	0
-62	739	0
-539	536	0
-542	536	0
-542	640	0
-539	30	0
332	-640	0
-332	640	0
332	-643	0
-332	643	0
332	-646	0
-332	646	0
332	-694	0
-332	694	0
332	-773	0
-332	773	0
332	-774	0
-332	774	0
332	-776	0
-332	776	0
332	-779	0
-332	779	0
332	-780	0
-332	780	0
332	-782	0
-332	782	0
332	-783	0
-332	783	0
264	332	0
261	332	0
329	332	0
330	329	0
49	329	0
331	329	0
262	261	0
34	261	0
263	261	0
-685	-682	0
-610	-682	0
-661	-682	0
-686	683	0
-611	683	0
-662	683	0
-687	-684	0
-612	-684	0
-663	-684	0
-514	-809	0
665	-809	0
514	-810	0
-665	-810	0
-810	661	0
-809	661	0
-515	662	0
-516	-832	0
665	-832	0
516	-833	0
-665	-833	0
-833	663	0
-832	663	0
108	-664	0
-108	664	0
108	-665	0
-108	665	0
108	-710	0
-108	710	0
-518	515	0
-521	515	0
-521	523	0
-518	39	0
254	-337	0
-254	337	0
254	-338	0
-254	338	0
254	-523	0
-254	523	0
254	-613	0
-254	613	0
254	-648	0
-254	648	0
254	-688	0
-254	688	0
254	-721	0
-254	721	0
254	-727	0
-254	727	0
255	254	0
189	254	0
247	254	0
248	247	0
77	247	0
249	247	0
315	255	0
55	255	0
316	255	0
-433	-815	0
620	-815	0
433	-816	0
-620	-816	0
-816	610	0
-815	610	0
-434	611	0
-435	-834	0
620	-834	0
435	-835	0
-620	-835	0
-835	612	0
-834	612	0
94	-620	0
-94	620	0
94	-621	0
-94	621	0
94	-702	0
-94	702	0
94	-750	0
-94	750	0
-437	434	0
-440	434	0
-440	546	0
-437	4	0
336	-546	0
-336	546	0
336	-549	0
-336	549	0
336	-550	0
-336	550	0
336	-614	0
-336	614	0
336	-655	0
-336	655	0
336	-733	0
-336	733	0
336	-736	0
-336	736	0
333	336	0
205	336	0
269	336	0
270	269	0
25	269	0
271	269	0
334	333	0
97	333	0
335	333	0
-505	-805	0
741	-805	0
505	-806	0
-741	-806	0
-806	685	0
-805	685	0
-506	686	0
-507	-836	0
741	-836	0
507	-837	0
-741	-837	0
-837	687	0
-836	687	0
114	-740	0
-114	740	0
114	-741	0
-114	741	0
114	-752	0
-114	752	0
114	-753	0
-114	753	0
-509	506	0
-512	506	0
-512	689	0
-509	11	0
314	-689	0
-314	689	0
314	-692	0
-314	692	0
314	-693	0
-314	693	0
314	-725	0
-314	725	0
314	-772	0
-314	772	0
314	-775	0
-314	775	0
314	-798	0
-314	798	0
311	314	0
176	314	0
308	314	0
309	308	0
119	308	0
310	308	0
312	311	0
56	311	0
313	311	0
666	679	0
737	679	0
-667	680	0
-667	737	0
668	681	0
737	681	0
673	666	0
-673	-666	0
-674	667	0
675	668	0
-675	-668	0
-396	-817	0
597	-817	0
396	-818	0
-597	-818	0
-818	594	0
-817	594	0
-397	595	0
-398	-838	0
597	-838	0
398	-839	0
-597	-839	0
-839	596	0
-838	596	0
83	-339	0
-83	339	0
83	-340	0
-83	340	0
83	-597	0
-83	597	0
83	-734	0
-83	734	0
-406	397	0
-412	397	0
-412	445	0
-406	51	0
317	-445	0
-317	445	0
317	-448	0
-317	448	0
317	-452	0
-317	452	0
317	-551	0
-317	551	0
317	-553	0
-317	553	0
194	317	0
318	317	0
319	317	0
320	319	0
90	319	0
321	319	0
394	318	0
92	318	0
395	318	0
-590	-586	0
-644	-586	0
580	-644	0
-580	644	0
580	-645	0
-580	645	0
580	-649	0
-580	649	0
580	-722	0
-580	722	0
580	-724	0
-580	724	0
584	580	0
-584	-580	0
121	-584	0
-121	584	0
121	-585	0
-121	585	0
121	-647	0
-121	647	0
121	-654	0
-121	654	0
121	-723	0
-121	723	0
121	-726	0
-121	726	0
504	-589	0
-504	589	0
504	-590	0
-504	590	0
46	504	0
-46	-504	0
-589	-581	0
-585	-581	0
229	-449	0
-229	449	0
229	-450	0
-229	450	0
229	-451	0
-229	451	0
229	-477	0
-229	477	0
226	229	0
165	229	0
223	229	0
224	223	0
10	223	0
225	223	0
227	226	0
38	226	0
228	226	0
-131	-841	0
129	-841	0
131	-842	0
-129	-842	0
-842	840	0
-841	840	0
769	129	0
-769	-129	0
-770	130	0
771	131	0
-771	-131	0
-840	843	0
-822	843	0
-821	-436	-4	0
821	439	4	0
821	546	4	0
821	439	436	0
821	546	436	0
-821	-546	-439	0
-821	-438	-4	0
821	441	4	0
821	546	4	0
821	441	438	0
821	546	438	0
-821	-546	-441	0
823	134	-132	0
824	-134	132	0
-822	824	823	0
-133	132	134	0
-133	-132	-134	0
-763	762	764	0
-763	-762	-764	0
-569	767	770	0
-770	769	771	0
-770	-769	-771	0
-767	766	768	0
-767	-766	-768	0
-569	568	570	0
-569	-568	-570	0
819	482	-577	0
820	-482	577	0
-575	820	819	0
-483	-43	-482	0
-486	-484	-482	0
484	43	482	0
486	43	482	0
484	483	482	0
486	483	482	0
557	558	559	0
758	760	559	0
755	759	559	0
-795	-794	-756	0
-797	-792	-756	0
813	487	-784	0
814	-487	784	0
-656	814	813	0
-488	-117	-487	0
-491	-489	-487	0
489	117	487	0
491	117	487	0
489	488	487	0
491	488	487	0
173	171	170	0
109	171	170	0
174	171	170	0
173	81	170	0
109	81	170	0
174	81	170	0
173	172	170	0
109	172	170	0
174	172	170	0
-465	-37	-464	0
-467	-466	-464	0
466	37	464	0
467	37	464	0
466	465	464	0
467	465	464	0
299	297	296	0
96	297	296	0
300	297	296	0
299	88	296	0
96	88	296	0
300	88	296	0
299	298	296	0
96	298	296	0
300	298	296	0
-363	-44	-361	0
-366	-365	-361	0
365	44	361	0
366	44	361	0
365	363	361	0
366	363	361	0
215	213	212	0
64	213	212	0
216	213	212	0
215	100	212	0
64	100	212	0
216	100	212	0
215	214	212	0
64	214	212	0
216	214	212	0
742	564	558	0
560	786	558	0
566	478	562	0
-566	-478	562	0
-566	478	-562	0
566	-478	-562	0
-479	-99	-478	0
-481	-480	-478	0
480	99	478	0
481	99	478	0
480	479	478	0
481	479	478	0
163	161	160	0
18	161	160	0
164	161	160	0
163	20	160	0
18	20	160	0
164	20	160	0
163	162	160	0
18	162	160	0
164	162	160	0
-459	-50	-458	0
-462	-460	-458	0
460	50	458	0
462	50	458	0
460	459	458	0
462	459	458	0
153	152	150	0
17	152	150	0
155	152	150	0
153	115	150	0
17	115	150	0
155	115	150	0
153	151	150	0
17	151	150	0
155	151	150	0
586	581	571	0
-591	-581	-571	0
-591	-586	-571	0
-587	-588	593	0
-587	-586	591	0
-587	591	593	0
-582	-583	593	0
-582	-581	591	0
-582	591	593	0
-592	586	581	0
-572	571	573	0
-572	-571	-573	0
586	581	573	0
-593	-581	-573	0
-593	-586	-573	0
-605	-606	-601	0
-605	-604	-603	0
-605	-601	-603	0
-605	-606	-598	0
-605	-604	-600	0
-605	-598	-600	0
-605	-606	-594	0
-605	-604	-596	0
-605	-594	-596	0
-602	-603	-604	0
-602	-601	-606	0
-602	-604	-606	0
-602	-603	-598	0
-602	-601	-600	0
-602	-598	-600	0
-602	-603	-594	0
-602	-601	-596	0
-602	-594	-596	0
-599	-600	-604	0
-599	-598	-606	0
-599	-604	-606	0
-599	-600	-601	0
-599	-598	-603	0
-599	-601	-603	0
-599	-600	-594	0
-599	-598	-596	0
-599	-594	-596	0
-595	-596	-604	0
-595	-594	-606	0
-595	-604	-606	0
-595	-596	-601	0
-595	-594	-603	0
-595	-601	-603	0
-595	-596	-598	0
-595	-594	-600	0
-595	-598	-600	0
-592	591	593	0
-592	-591	-593	0
811	402	-660	0
812	-402	660	0
-604	812	811	0
-605	604	606	0
-605	-604	-606	0
825	404	-660	0
826	-404	660	0
-606	826	825	0
-408	-21	-402	0
-454	-414	-402	0
414	21	402	0
454	21	402	0
414	408	402	0
454	408	402	0
-455	-456	416	0
-455	-454	414	0
-455	414	416	0
-22	-23	410	0
-22	-21	408	0
-22	408	410	0
-403	402	404	0
-403	-402	-404	0
-410	-21	-404	0
-454	-416	-404	0
416	21	404	0
454	21	404	0
416	410	404	0
454	410	404	0
-242	-241	-238	0
241	239	238	0
242	239	238	0
241	48	238	0
242	48	238	0
241	240	238	0
242	240	238	0
-828	533	542	0
-542	541	543	0
-542	-541	-543	0
-533	532	534	0
-533	-532	-534	0
-521	520	522	0
-521	-520	-522	0
-512	511	513	0
-512	-511	-513	0
-499	498	500	0
-499	-498	-500	0
-440	439	441	0
-440	-439	-441	0
-427	426	428	0
-427	-426	-428	0
-418	417	419	0
-418	-417	-419	0
-415	414	416	0
-415	-414	-416	0
-412	411	413	0
-412	-411	-413	0
-539	538	540	0
-539	-538	-540	0
-530	529	531	0
-530	-529	-531	0
-518	517	519	0
-518	-517	-519	0
-509	508	510	0
-509	-508	-510	0
-496	495	497	0
-496	-495	-497	0
-437	436	438	0
-437	-436	-438	0
-424	423	425	0
-424	-423	-425	0
-409	408	410	0
-409	-408	-410	0
-406	405	407	0
-406	-405	-407	0
-400	399	401	0
-400	-399	-401	0
628	634	601	0
622	631	601	0
-632	-633	-622	0
-632	-631	-624	0
-632	-622	-624	0
-629	-630	-634	0
-629	-628	-636	0
-629	-634	-636	0
-623	-624	627	0
-623	-622	625	0
-623	625	627	0
-632	-633	627	0
-632	-631	625	0
-632	625	627	0
-629	-630	627	0
-629	-628	625	0
-629	625	627	0
-635	-636	627	0
-635	-634	625	0
-635	625	627	0
-602	601	603	0
-602	-601	-603	0
628	636	603	0
624	631	603	0
-714	-707	-625	0
-718	-703	-625	0
-719	-720	-711	0
-719	-718	-713	0
-719	-711	-713	0
-704	-705	-711	0
-704	-703	-713	0
-704	-711	-713	0
-715	-716	-711	0
-715	-714	-713	0
-715	-711	-713	0
-708	-709	-711	0
-708	-707	-713	0
-708	-711	-713	0
-712	-718	-703	0
-712	-714	-707	0
-719	-714	-707	0
-704	-714	-707	0
-715	-718	-703	0
-708	-718	-703	0
-626	625	627	0
-626	-625	-627	0
-714	-707	-627	0
-718	-703	-627	0
807	492	-732	0
808	-492	732	0
-711	808	807	0
-712	711	713	0
-712	-711	-713	0
830	494	-732	0
831	-494	732	0
-713	831	830	0
-495	-101	-492	0
-501	-498	-492	0
498	101	492	0
501	101	492	0
498	495	492	0
501	495	492	0
-502	-503	500	0
-502	-501	498	0
-502	498	500	0
-102	-103	497	0
-102	-101	495	0
-102	495	497	0
-493	492	494	0
-493	-492	-494	0
-497	-101	-494	0
-501	-500	-494	0
500	101	494	0
501	101	494	0
500	497	494	0
501	497	494	0
186	184	183	0
110	184	183	0
188	184	183	0
186	27	183	0
110	27	183	0
188	27	183	0
186	185	183	0
110	185	183	0
188	185	183	0
-362	-111	-357	0
-359	-364	-357	0
364	111	357	0
359	111	357	0
364	362	357	0
359	362	357	0
158	156	137	0
75	156	137	0
159	156	137	0
158	9	137	0
75	9	137	0
159	9	137	0
158	157	137	0
75	157	137	0
159	157	137	0
-623	622	624	0
-623	-622	-624	0
-421	635	638	0
-638	637	639	0
-638	-637	-639	0
-635	634	636	0
-635	-634	-636	0
-423	-123	-420	0
-429	-426	-420	0
426	123	420	0
429	123	420	0
426	423	420	0
429	423	420	0
-430	-431	428	0
-430	-429	426	0
-430	426	428	0
-124	-125	425	0
-124	-123	423	0
-124	423	425	0
-421	420	422	0
-421	-420	-422	0
-425	-123	-422	0
-429	-428	-422	0
428	123	422	0
429	123	422	0
428	425	422	0
429	425	422	0
259	257	256	0
57	257	256	0
260	257	256	0
259	19	256	0
57	19	256	0
260	19	256	0
259	258	256	0
57	258	256	0
260	258	256	0
-670	-671	609	0
-670	-669	607	0
-670	607	609	0
-670	-671	684	0
-670	-669	682	0
-670	682	684	0
-670	-671	681	0
-670	-669	679	0
-670	679	681	0
-608	-609	671	0
-608	-607	669	0
-608	669	671	0
-608	-609	684	0
-608	-607	682	0
-608	682	684	0
-608	-609	681	0
-608	-607	679	0
-608	679	681	0
-683	-684	671	0
-683	-682	669	0
-683	669	671	0
-683	-684	609	0
-683	-682	607	0
-683	607	609	0
-683	-684	681	0
-683	-682	679	0
-683	679	681	0
-680	-681	671	0
-680	-679	669	0
-680	669	671	0
-680	-681	609	0
-680	-679	607	0
-680	607	609	0
-680	-681	684	0
-680	-679	682	0
-680	682	684	0
-599	598	600	0
-599	-598	-600	0
-669	-744	-676	0
-670	669	671	0
-670	-669	-671	0
-671	-744	-678	0
-527	674	677	0
-677	676	678	0
-677	-676	-678	0
-674	673	675	0
-674	-673	-675	0
-529	-69	-526	0
-650	-532	-526	0
532	69	526	0
650	69	526	0
532	529	526	0
650	529	526	0
-651	-652	534	0
-651	-650	532	0
-651	532	534	0
-70	-71	531	0
-70	-69	529	0
-70	529	531	0
-527	526	528	0
-527	-526	-528	0
-531	-69	-528	0
-650	-534	-528	0
534	69	528	0
650	69	528	0
534	531	528	0
650	531	528	0
203	201	200	0
68	201	200	0
204	201	200	0
203	14	200	0
68	14	200	0
204	14	200	0
203	202	200	0
68	202	200	0
204	202	200	0
698	535	607	0
-698	-535	607	0
-698	535	-607	0
698	-535	-607	0
-608	607	609	0
-608	-607	-609	0
698	537	609	0
-698	-537	609	0
-698	537	-609	0
698	-537	-609	0
-538	-30	-535	0
-640	-541	-535	0
541	30	535	0
640	30	535	0
541	538	535	0
640	538	535	0
-641	-642	543	0
-641	-640	541	0
-641	541	543	0
-31	-32	540	0
-31	-30	538	0
-31	538	540	0
-536	535	537	0
-536	-535	-537	0
-540	-30	-537	0
-640	-543	-537	0
543	30	537	0
640	30	537	0
543	540	537	0
640	540	537	0
267	265	264	0
26	265	264	0
268	265	264	0
267	78	264	0
26	78	264	0
268	78	264	0
267	266	264	0
26	266	264	0
268	266	264	0
-662	-663	-610	0
-662	-661	-612	0
-662	-610	-612	0
-662	-663	-685	0
-662	-661	-687	0
-662	-685	-687	0
-611	-612	-661	0
-611	-610	-663	0
-611	-661	-663	0
-611	-612	-685	0
-611	-610	-687	0
-611	-685	-687	0
-686	-687	-661	0
-686	-685	-663	0
-686	-661	-663	0
-686	-687	-610	0
-686	-685	-612	0
-686	-610	-612	0
-683	682	684	0
-683	-682	-684	0
809	514	-665	0
810	-514	665	0
-661	810	809	0
-662	661	663	0
-662	-661	-663	0
832	516	-665	0
833	-516	665	0
-663	833	832	0
-517	-39	-514	0
-523	-520	-514	0
520	39	514	0
523	39	514	0
520	517	514	0
523	517	514	0
-524	-525	522	0
-524	-523	520	0
-524	520	522	0
-40	-41	519	0
-40	-39	517	0
-40	517	519	0
-515	514	516	0
-515	-514	-516	0
-519	-39	-516	0
-523	-522	-516	0
522	39	516	0
523	39	516	0
522	519	516	0
523	519	516	0
192	190	189	0
63	190	189	0
193	190	189	0
192	16	189	0
63	16	189	0
193	16	189	0
192	191	189	0
63	191	189	0
193	191	189	0
815	433	-620	0
816	-433	620	0
-610	816	815	0
-611	610	612	0
-611	-610	-612	0
834	435	-620	0
835	-435	620	0
-612	835	834	0
-436	-4	-433	0
-546	-439	-433	0
439	4	433	0
546	4	433	0
439	436	433	0
546	436	433	0
-547	-548	441	0
-547	-546	439	0
-547	439	441	0
-5	-6	438	0
-5	-4	436	0
-5	436	438	0
-434	433	435	0
-434	-433	-435	0
-438	-4	-435	0
-546	-441	-435	0
441	4	435	0
546	4	435	0
441	438	435	0
546	438	435	0
208	206	205	0
84	206	205	0
209	206	205	0
208	113	205	0
84	113	205	0
209	113	205	0
208	207	205	0
84	207	205	0
209	207	205	0
805	505	-741	0
806	-505	741	0
-685	806	805	0
-686	685	687	0
-686	-685	-687	0
836	507	-741	0
837	-507	741	0
-687	837	836	0
-508	-11	-505	0
-689	-511	-505	0
511	11	505	0
689	11	505	0
511	508	505	0
689	508	505	0
-690	-691	513	0
-690	-689	511	0
-690	511	513	0
-12	-13	510	0
-12	-11	508	0
-12	508	510	0
-506	505	507	0
-506	-505	-507	0
-510	-11	-507	0
-689	-513	-507	0
513	11	507	0
689	11	507	0
513	510	507	0
689	510	507	0
182	179	176	0
8	179	176	0
187	179	176	0
182	35	176	0
8	35	176	0
187	35	176	0
182	181	176	0
8	181	176	0
187	181	176	0
-679	-666	-737	0
-680	679	681	0
-680	-679	-681	0
-681	-668	-737	0
-667	666	668	0
-667	-666	-668	0
817	396	-597	0
818	-396	597	0
-594	818	817	0
-595	594	596	0
-595	-594	-596	0
838	398	-597	0
839	-398	597	0
-596	839	838	0
-405	-51	-396	0
-445	-411	-396	0
411	51	396	0
445	51	396	0
411	405	396	0
445	405	396	0
-446	-447	413	0
-446	-445	411	0
-446	411	413	0
-52	-53	407	0
-52	-51	405	0
-52	405	407	0
-397	396	398	0
-397	-396	-398	0
-407	-51	-398	0
-445	-413	-398	0
413	51	398	0
445	51	398	0
413	407	398	0
445	407	398	0
198	197	194	0
86	197	194	0
199	197	194	0
198	98	194	0
86	98	194	0
199	98	194	0
198	196	194	0
86	196	194	0
199	196	194	0
586	590	644	0
581	589	585	0
-475	-85	-474	0
-477	-476	-474	0
476	85	474	0
477	85	474	0
476	475	474	0
477	475	474	0
168	166	165	0
104	166	165	0
169	166	165	0
168	112	165	0
104	112	165	0
169	112	165	0
168	167	165	0
104	167	165	0
169	167	165	0
841	131	-129	0
842	-131	129	0
-840	842	841	0
-130	129	131	0
-130	-129	-131	0
-843	840	822	0
-291	-294	-127	-295	0
-286	-287	-36	-288	0
-283	-284	-93	-285	0
-290	-292	-126	-293	0
-756	-759	-760	-559	0
-756	-755	-760	-559	0
-756	-759	-758	-559	0
-756	-755	-758	-559	0
656	792	794	756	0
656	797	794	756	0
656	792	795	756	0
656	797	795	756	0
-461	-471	-170	-468	0
-468	-469	-76	-470	0
-172	-81	-171	-170	0
-174	-109	-173	-170	0
-471	-472	-47	-473	0
-360	-296	-372	-369	0
-369	-370	-120	-371	0
-372	-373	-15	-374	0
-298	-88	-297	-296	0
-300	-96	-299	-296	0
-210	-211	-212	-139	0
-139	-141	-24	-143	0
-214	-100	-213	-212	0
-216	-64	-215	-212	0
-211	-217	-45	-218	0
-562	-786	-564	-558	0
-562	-560	-564	-558	0
-562	-786	-742	-558	0
-562	-560	-742	-558	0
-233	-160	-234	-230	0
-230	-231	-122	-232	0
-234	-305	-95	-306	0
-162	-20	-161	-160	0
-164	-18	-163	-160	0
-222	-219	-150	-147	0
-147	-148	-80	-149	0
-151	-115	-152	-150	0
-155	-17	-153	-150	0
-219	-220	-87	-221	0
-455	-21	-456	-408	0
-455	-21	-454	-410	0
-455	-21	-408	-410	0
-415	-21	-416	-408	0
-415	-21	-414	-410	0
-415	-21	-408	-410	0
-409	-454	-410	-414	0
-409	-454	-408	-416	0
-409	-454	-414	-416	0
-22	-454	-23	-414	0
-22	-454	-21	-416	0
-22	-454	-414	-416	0
-243	-175	-238	-235	0
-235	-236	-105	-237	0
-240	-48	-239	-238	0
-175	-178	-116	-180	0
-625	-631	-634	-601	0
-625	-622	-634	-601	0
-625	-631	-628	-601	0
-625	-622	-628	-601	0
-626	631	-627	624	0
-626	631	-625	622	0
-626	631	622	624	0
-626	628	-627	636	0
-626	628	-625	634	0
-626	628	634	636	0
-623	628	-624	636	0
-623	628	-622	634	0
-623	628	634	636	0
-632	628	-633	636	0
-632	628	-631	634	0
-632	628	634	636	0
-629	631	-630	624	0
-629	631	-628	622	0
-629	631	622	624	0
-635	631	-636	624	0
-635	631	-634	622	0
-635	631	622	624	0
-627	-631	-636	-603	0
-627	-624	-636	-603	0
-627	-631	-628	-603	0
-627	-624	-628	-603	0
711	703	707	625	0
711	718	707	625	0
711	703	714	625	0
711	718	714	625	0
713	703	707	627	0
713	718	707	627	0
713	703	714	627	0
713	718	714	627	0
-502	-101	-503	-495	0
-502	-101	-501	-497	0
-502	-101	-495	-497	0
-499	-101	-500	-495	0
-499	-101	-498	-497	0
-499	-101	-495	-497	0
-496	-501	-497	-498	0
-496	-501	-495	-500	0
-496	-501	-498	-500	0
-102	-501	-103	-498	0
-102	-501	-101	-500	0
-102	-501	-498	-500	0
-282	-380	-183	-383	0
-383	-384	-2	-385	0
-185	-27	-184	-183	0
-188	-110	-186	-183	0
-380	-381	-42	-382	0
-135	-136	-137	-138	0
-138	-142	-67	-144	0
-157	-9	-156	-137	0
-159	-75	-158	-137	0
-136	-146	-7	-154	0
-430	-123	-431	-423	0
-430	-123	-429	-425	0
-430	-123	-423	-425	0
-427	-123	-428	-423	0
-427	-123	-426	-425	0
-427	-123	-423	-425	0
-424	-429	-425	-426	0
-424	-429	-423	-428	0
-424	-429	-426	-428	0
-124	-429	-125	-426	0
-124	-429	-123	-428	0
-124	-429	-426	-428	0
-328	-325	-256	-322	0
-322	-323	-65	-324	0
-258	-19	-257	-256	0
-260	-57	-259	-256	0
-325	-326	-33	-327	0
-651	-69	-652	-529	0
-651	-69	-650	-531	0
-651	-69	-529	-531	0
-533	-69	-534	-529	0
-533	-69	-532	-531	0
-533	-69	-529	-531	0
-530	-650	-531	-532	0
-530	-650	-529	-534	0
-530	-650	-532	-534	0
-70	-650	-71	-532	0
-70	-650	-69	-534	0
-70	-650	-532	-534	0
-253	-250	-200	-244	0
-244	-245	-28	-246	0
-202	-14	-201	-200	0
-204	-68	-203	-200	0
-250	-251	-118	-252	0
-641	-30	-642	-538	0
-641	-30	-640	-540	0
-641	-30	-538	-540	0
-542	-30	-543	-538	0
-542	-30	-541	-540	0
-542	-30	-538	-540	0
-539	-640	-540	-541	0
-539	-640	-538	-543	0
-539	-640	-541	-543	0
-31	-640	-32	-541	0
-31	-640	-30	-543	0
-31	-640	-541	-543	0
-332	-264	-261	-329	0
-329	-330	-49	-331	0
-261	-262	-34	-263	0
-266	-78	-265	-264	0
-268	-26	-267	-264	0
682	685	610	661	0
684	687	612	663	0
-524	-39	-525	-517	0
-524	-39	-523	-519	0
-524	-39	-517	-519	0
-521	-39	-522	-517	0
-521	-39	-520	-519	0
-521	-39	-517	-519	0
-518	-523	-519	-520	0
-518	-523	-517	-522	0
-518	-523	-520	-522	0
-40	-523	-41	-520	0
-40	-523	-39	-522	0
-40	-523	-520	-522	0
-254	-255	-189	-247	0
-247	-248	-77	-249	0
-191	-16	-190	-189	0
-193	-63	-192	-189	0
-255	-315	-55	-316	0
-547	-4	-548	-436	0
-547	-4	-546	-438	0
-547	-4	-436	-438	0
-440	-4	-441	-436	0
-440	-4	-439	-438	0
-440	-4	-436	-438	0
-437	-546	-438	-439	0
-437	-546	-436	-441	0
-437	-546	-439	-441	0
-5	-546	-6	-439	0
-5	-546	-4	-441	0
-5	-546	-439	-441	0
-336	-333	-205	-269	0
-269	-270	-25	-271	0
-207	-113	-206	-205	0
-209	-84	-208	-205	0
-333	-334	-97	-335	0
-690	-11	-691	-508	0
-690	-11	-689	-510	0
-690	-11	-508	-510	0
-512	-11	-513	-508	0
-512	-11	-511	-510	0
-512	-11	-508	-510	0
-509	-689	-510	-511	0
-509	-689	-508	-513	0
-509	-689	-511	-513	0
-12	-689	-13	-511	0
-12	-689	-11	-513	0
-12	-689	-511	-513	0
-314	-311	-176	-308	0
-308	-309	-119	-310	0
-181	-35	-179	-176	0
-187	-8	-182	-176	0
-311	-312	-56	-313	0
-446	-51	-447	-405	0
-446	-51	-445	-407	0
-446	-51	-405	-407	0
-412	-51	-413	-405	0
-412	-51	-411	-407	0
-412	-51	-405	-407	0
-406	-445	-407	-411	0
-406	-445	-405	-413	0
-406	-445	-411	-413	0
-52	-445	-53	-411	0
-52	-445	-51	-413	0
-52	-445	-411	-413	0
-317	-194	-318	-319	0
-319	-320	-90	-321	0
-318	-394	-92	-395	0
-196	-98	-197	-194	0
-199	-86	-198	-194	0
-229	-226	-165	-223	0
-223	-224	-10	-225	0
-167	-112	-166	-165	0
-169	-104	-168	-165	0
-226	-227	-38	-228	0
568	474	571	574	575	0
570	474	573	574	575	0
-289	-290	-283	-286	-291	0
591	594	598	601	604	0
593	596	600	603	606	0
-598	-679	-682	-607	-669	0
-600	-681	-684	-609	-671	0
-73	412	415	418	427	827	0
-827	440	499	512	521	828	0
-400	406	409	424	437	829	0
-829	496	509	518	530	539	0
